45 60
7 2 1
2 8 2
9 3 1
5 9 2
8 2 1
10 10 2
8 6 1
9 6 2
7 8 1
6 5 1
6 1 2
9 7 2
10 3 4
7 6 2
7 3 1
10 5 1
5 3 1
1 10 2
6 3 1
10 7 1
4 7 1
2 4 1
5 5 1
4 8 1
4 6 1
5 4 1
9 10 1
1 3 2
5 1 1
3 2 1
4 4 2
8 8 1
3 3 2
8 4 1
8 3 1
2 5 2
2 9 1
3 8 1
6 7 1
1 5 1
6 8 1
3 7 1
1 6 1
1 4 1
7 1 1
10 10 
10 10 
10 10 
10 10 
10 10 
10 10 
10 10 
10 10 
10 10 
10 10 
10 10 
10 10 
10 10 
10 10 
10 10 
10 10 
10 10 
10 10 
10 10 
10 10 
10 10 
10 10 
10 10 
10 10 
10 10 
10 10 
10 10 
10 10 
10 10 
10 10 
10 10 
10 10 
10 10 
10 10 
10 10 
10 10 
10 10 
10 10 
10 10 
10 10 
10 10 
10 10 
10 10 
10 10 
10 10 
10 10 
10 10 
10 10 
10 10 
10 10 
10 10 
10 10 
10 10 
10 10 
10 10 
10 10 
10 10 
10 10 
10 10 
10 10 
